problems/csplib-prob015/SchursLemma-models/compact/O2/lingeling/model_1_1-4-12-solution000001.solution
language Essence 1.3

letting boxes be partition({1, 2, 4}, {3, 5, 12}, {6, 7, 8, 10, 11}, {9})
