problems/csplib-prob015/SchursLemma-models/compact/O2/minion/model_1_1-4-12-solution000001.eprime-solution
language ESSENCE' 1.0

letting boxes_PartitionAsSet_ExplicitR2_Occurrence be
        [[false, false, false, false, false, false, false, false, false, false, false, true; int(1..12)],
         [false, false, false, false, false, false, false, false, true, true, false, false; int(1..12)],
         [false, false, true, false, true, true, true, false, false, false, false, false; int(1..12)],
         [true, true, false, true, false, false, false, true, false, false, true, false; int(1..12)]; int(1..4)]
